1 1503 10
2 1308 10
4 1283 10
10 1282 10
11 1254 10
12 1225 10
67 1198 10
649 1184 9



1 1588 10
2 1337 10
4 1317 10
5 1292 10
8 1274 10
11 1268 10
13 1238 9
33 1236 10
40 1221 10
52 1215 10
97 1182 10



1 1659 10
2 1336 10
4 1330 10
5 1322 10
6 1295 10
7 1285 10
13 1273 10
15 1246 10
23 1214 10
124 1204 10
480 1193 10
551 1148 10



1 1532 10
2 1299 10
4 1296 10
5 1253 10
20 1238 10
35 1208 10
63 1193 10
189 1182 10



1 1555 11
2 1327 10
4 1302 10
6 1271 10
10 1270 10
16 1254 10
18 1253 10
19 1207 10
63 1192 10
873 1186 10



